(declare-fun a_ack!67 () (_ BitVec 64))
(declare-fun b_ack!66 () (_ BitVec 64))
(assert (let ((a!1 ((_ extract 0 0)
             (ite (fp.isInfinite ((_ to_fp 11 53) a_ack!67)) #x01 #x00))))
  (not (= a!1 #b1))))
(assert (let ((a!1 ((_ extract 0 0)
             (ite (fp.isInfinite ((_ to_fp 11 53) b_ack!66)) #x01 #x00))))
  (not (= a!1 #b1))))
(assert (fp.lt (fp.abs ((_ to_fp 11 53) a_ack!67)) (fp.abs ((_ to_fp 11 53) b_ack!66))))

(check-sat)
(exit)
